p cnf 873 2669
-2 -5 51 0
2 -5 -51 0
-2 5 -51 0
2 5 51 0
-7 -10 52 0
7 -10 -52 0
-7 10 -52 0
7 10 52 0
11 -14 53 0
-11 -14 -53 0
11 14 -53 0
-11 14 53 0
-18 -19 54 0
18 -19 -54 0
-18 19 -54 0
18 19 54 0
20 21 55 0
-20 21 -55 0
20 -21 -55 0
-20 -21 55 0
-22 23 56 0
22 23 -56 0
-22 -23 -56 0
22 -23 56 0
24 25 57 0
-24 25 -57 0
24 -25 -57 0
-24 -25 57 0
26 -29 58 0
-26 -29 -58 0
26 29 -58 0
-26 29 58 0
-36 41 59 0
36 41 -59 0
-36 -41 -59 0
36 -41 59 0
42 43 60 0
-42 43 -60 0
42 -43 -60 0
-42 -43 60 0
-45 -46 61 0
45 -46 -61 0
-45 46 -61 0
45 46 61 0
50 -51 62 0
-50 -51 -62 0
50 51 -62 0
-50 51 62 0
52 -53 63 0
-52 -53 -63 0
52 53 -63 0
-52 53 63 0
54 -55 64 0
-54 -55 -64 0
54 55 -64 0
-54 55 64 0
56 -57 65 0
-56 -57 -65 0
56 57 -65 0
-56 57 65 0
58 -59 66 0
-58 -59 -66 0
58 59 -66 0
-58 59 66 0
60 -61 67 0
-60 -61 -67 0
60 61 -67 0
-60 61 67 0
62 -63 68 0
-62 -63 -68 0
62 63 -68 0
-62 63 68 0
64 -65 69 0
-64 -65 -69 0
64 65 -69 0
-64 65 69 0
66 -67 70 0
-66 -67 -70 0
66 67 -70 0
-66 67 70 0
-68 -69 70 0
68 -69 -70 0
-68 69 -70 0
68 69 70 0
-1 -4 71 0
1 -4 -71 0
-1 4 -71 0
1 4 71 0
5 -8 72 0
-5 -8 -72 0
5 8 -72 0
-5 8 72 0
-9 10 73 0
9 10 -73 0
-9 -10 -73 0
9 -10 73 0
-11 16 74 0
11 16 -74 0
-11 -16 -74 0
11 -16 74 0
-17 -18 75 0
17 -18 -75 0
-17 18 -75 0
17 18 75 0
19 -20 76 0
-19 -20 -76 0
19 20 -76 0
-19 20 76 0
22 -23 77 0
-22 -23 -77 0
22 23 -77 0
-22 23 77 0
25 27 78 0
-25 27 -78 0
25 -27 -78 0
-25 -27 78 0
-28 -29 79 0
28 -29 -79 0
-28 29 -79 0
28 29 79 0
30 -31 80 0
-30 -31 -80 0
30 31 -80 0
-30 31 80 0
-32 -33 81 0
32 -33 -81 0
-32 33 -81 0
32 33 81 0
35 -38 82 0
-35 -38 -82 0
35 38 -82 0
-35 38 82 0
40 -43 83 0
-40 -43 -83 0
40 43 -83 0
-40 43 83 0
70 -71 84 0
-70 -71 -84 0
70 71 -84 0
-70 71 84 0
72 -73 85 0
-72 -73 -85 0
72 73 -85 0
-72 73 85 0
74 -75 86 0
-74 -75 -86 0
74 75 -86 0
-74 75 86 0
76 -77 87 0
-76 -77 -87 0
76 77 -87 0
-76 77 87 0
78 -79 88 0
-78 -79 -88 0
78 79 -88 0
-78 79 88 0
80 -81 89 0
-80 -81 -89 0
80 81 -89 0
-80 81 89 0
82 -83 90 0
-82 -83 -90 0
82 83 -90 0
-82 83 90 0
84 -85 91 0
-84 -85 -91 0
84 85 -91 0
-84 85 91 0
86 -87 92 0
-86 -87 -92 0
86 87 -92 0
-86 87 92 0
88 -89 93 0
-88 -89 -93 0
88 89 -93 0
-88 89 93 0
90 -91 94 0
-90 -91 -94 0
90 91 -94 0
-90 91 94 0
92 -93 95 0
-92 -93 -95 0
92 93 -95 0
-92 93 95 0
94 95 0
-94 -95 0
3 -6 96 0
-3 -6 -96 0
3 6 -96 0
-3 6 96 0
8 -9 97 0
-8 -9 -97 0
8 9 -97 0
-8 9 97 0
10 13 98 0
-10 13 -98 0
10 -13 -98 0
-10 -13 98 0
-18 19 99 0
18 19 -99 0
-18 -19 -99 0
18 -19 99 0
21 -22 100 0
-21 -22 -100 0
21 22 -100 0
-21 22 100 0
23 -24 101 0
-23 -24 -101 0
23 24 -101 0
-23 24 101 0
-27 30 102 0
27 30 -102 0
-27 -30 -102 0
27 -30 102 0
-32 -36 103 0
32 -36 -103 0
-32 36 -103 0
32 36 103 0
-46 49 104 0
46 49 -104 0
-46 -49 -104 0
46 -49 104 0
95 -96 105 0
-95 -96 -105 0
95 96 -105 0
-95 96 105 0
97 -98 106 0
-97 -98 -106 0
97 98 -106 0
-97 98 106 0
99 -100 107 0
-99 -100 -107 0
99 100 -107 0
-99 100 107 0
101 -102 108 0
-101 -102 -108 0
101 102 -108 0
-101 102 108 0
103 -104 109 0
-103 -104 -109 0
103 104 -109 0
-103 104 109 0
105 -106 110 0
-105 -106 -110 0
105 106 -110 0
-105 106 110 0
107 -108 111 0
-107 -108 -111 0
107 108 -111 0
-107 108 111 0
-109 -110 111 0
109 -110 -111 0
-109 110 -111 0
109 110 111 0
-1 2 112 0
1 2 -112 0
-1 -2 -112 0
1 -2 112 0
4 5 113 0
-4 5 -113 0
4 -5 -113 0
-4 -5 113 0
6 8 114 0
-6 8 -114 0
6 -8 -114 0
-6 -8 114 0
-9 12 115 0
9 12 -115 0
-9 -12 -115 0
9 -12 115 0
-15 -17 116 0
15 -17 -116 0
-15 17 -116 0
15 17 116 0
18 19 117 0
-18 19 -117 0
18 -19 -117 0
-18 -19 117 0
-20 23 118 0
20 23 -118 0
-20 -23 -118 0
20 -23 118 0
24 25 119 0
-24 25 -119 0
24 -25 -119 0
-24 -25 119 0
-27 29 120 0
27 29 -120 0
-27 -29 -120 0
27 -29 120 0
32 -33 121 0
-32 -33 -121 0
32 33 -121 0
-32 33 121 0
-35 -38 122 0
35 -38 -122 0
-35 38 -122 0
35 38 122 0
39 42 123 0
-39 42 -123 0
39 -42 -123 0
-39 -42 123 0
-43 -44 124 0
43 -44 -124 0
-43 44 -124 0
43 44 124 0
111 -112 125 0
-111 -112 -125 0
111 112 -125 0
-111 112 125 0
113 -114 126 0
-113 -114 -126 0
113 114 -126 0
-113 114 126 0
115 -116 127 0
-115 -116 -127 0
115 116 -127 0
-115 116 127 0
117 -118 128 0
-117 -118 -128 0
117 118 -128 0
-117 118 128 0
119 -120 129 0
-119 -120 -129 0
119 120 -129 0
-119 120 129 0
121 -122 130 0
-121 -122 -130 0
121 122 -130 0
-121 122 130 0
123 -124 131 0
-123 -124 -131 0
123 124 -131 0
-123 124 131 0
125 -126 132 0
-125 -126 -132 0
125 126 -132 0
-125 126 132 0
127 -128 133 0
-127 -128 -133 0
127 128 -133 0
-127 128 133 0
129 -130 134 0
-129 -130 -134 0
129 130 -134 0
-129 130 134 0
131 -132 135 0
-131 -132 -135 0
131 132 -135 0
-131 132 135 0
133 -134 136 0
-133 -134 -136 0
133 134 -136 0
-133 134 136 0
135 136 0
-135 -136 0
1 -3 137 0
-1 -3 -137 0
1 3 -137 0
-1 3 137 0
-7 -8 138 0
7 -8 -138 0
-7 8 -138 0
7 8 138 0
9 14 139 0
-9 14 -139 0
9 -14 -139 0
-9 -14 139 0
-15 16 140 0
15 16 -140 0
-15 -16 -140 0
15 -16 140 0
-17 19 141 0
17 19 -141 0
-17 -19 -141 0
17 -19 141 0
-20 -23 142 0
20 -23 -142 0
-20 23 -142 0
20 23 142 0
25 -26 143 0
-25 -26 -143 0
25 26 -143 0
-25 26 143 0
27 -28 144 0
-27 -28 -144 0
27 28 -144 0
-27 28 144 0
-30 -31 145 0
30 -31 -145 0
-30 31 -145 0
30 31 145 0
33 34 146 0
-33 34 -146 0
33 -34 -146 0
-33 -34 146 0
35 -39 147 0
-35 -39 -147 0
35 39 -147 0
-35 39 147 0
-40 -41 148 0
40 -41 -148 0
-40 41 -148 0
40 41 148 0
-42 -43 149 0
42 -43 -149 0
-42 43 -149 0
42 43 149 0
44 -47 150 0
-44 -47 -150 0
44 47 -150 0
-44 47 150 0
-48 -49 151 0
48 -49 -151 0
-48 49 -151 0
48 49 151 0
137 -138 152 0
-137 -138 -152 0
137 138 -152 0
-137 138 152 0
139 -140 153 0
-139 -140 -153 0
139 140 -153 0
-139 140 153 0
141 -142 154 0
-141 -142 -154 0
141 142 -154 0
-141 142 154 0
143 -144 155 0
-143 -144 -155 0
143 144 -155 0
-143 144 155 0
145 -146 156 0
-145 -146 -156 0
145 146 -156 0
-145 146 156 0
147 -148 157 0
-147 -148 -157 0
147 148 -157 0
-147 148 157 0
149 -150 158 0
-149 -150 -158 0
149 150 -158 0
-149 150 158 0
151 -152 159 0
-151 -152 -159 0
151 152 -159 0
-151 152 159 0
153 -154 160 0
-153 -154 -160 0
153 154 -160 0
-153 154 160 0
155 -156 161 0
-155 -156 -161 0
155 156 -161 0
-155 156 161 0
157 -158 162 0
-157 -158 -162 0
157 158 -162 0
-157 158 162 0
159 -160 163 0
-159 -160 -163 0
159 160 -163 0
-159 160 163 0
161 -162 164 0
-161 -162 -164 0
161 162 -164 0
-161 162 164 0
163 164 0
-163 -164 0
-1 -5 165 0
1 -5 -165 0
-1 5 -165 0
1 5 165 0
-11 12 166 0
11 12 -166 0
-11 -12 -166 0
11 -12 166 0
13 -14 167 0
-13 -14 -167 0
13 14 -167 0
-13 14 167 0
-18 24 168 0
18 24 -168 0
-18 -24 -168 0
18 -24 168 0
25 26 169 0
-25 26 -169 0
25 -26 -169 0
-25 -26 169 0
-28 -30 170 0
28 -30 -170 0
-28 30 -170 0
28 30 170 0
31 -32 171 0
-31 -32 -171 0
31 32 -171 0
-31 32 171 0
35 -41 172 0
-35 -41 -172 0
35 41 -172 0
-35 41 172 0
43 44 173 0
-43 44 -173 0
43 -44 -173 0
-43 -44 173 0
-46 47 174 0
46 47 -174 0
-46 -47 -174 0
46 -47 174 0
164 -165 175 0
-164 -165 -175 0
164 165 -175 0
-164 165 175 0
166 -167 176 0
-166 -167 -176 0
166 167 -176 0
-166 167 176 0
168 -169 177 0
-168 -169 -177 0
168 169 -177 0
-168 169 177 0
170 -171 178 0
-170 -171 -178 0
170 171 -178 0
-170 171 178 0
172 -173 179 0
-172 -173 -179 0
172 173 -179 0
-172 173 179 0
174 -175 180 0
-174 -175 -180 0
174 175 -180 0
-174 175 180 0
176 -177 181 0
-176 -177 -181 0
176 177 -181 0
-176 177 181 0
178 -179 182 0
-178 -179 -182 0
178 179 -182 0
-178 179 182 0
-180 -181 182 0
180 -181 -182 0
-180 181 -182 0
180 181 182 0
-1 3 183 0
1 3 -183 0
-1 -3 -183 0
1 -3 183 0
4 -5 184 0
-4 -5 -184 0
4 5 -184 0
-4 5 184 0
8 -11 185 0
-8 -11 -185 0
8 11 -185 0
-8 11 185 0
13 -17 186 0
-13 -17 -186 0
13 17 -186 0
-13 17 186 0
-18 -19 187 0
18 -19 -187 0
-18 19 -187 0
18 19 187 0
-21 23 188 0
21 23 -188 0
-21 -23 -188 0
21 -23 188 0
-26 -27 189 0
26 -27 -189 0
-26 27 -189 0
26 27 189 0
-29 30 190 0
29 30 -190 0
-29 -30 -190 0
29 -30 190 0
-31 32 191 0
31 32 -191 0
-31 -32 -191 0
31 -32 191 0
36 -40 192 0
-36 -40 -192 0
36 40 -192 0
-36 40 192 0
-41 42 193 0
41 42 -193 0
-41 -42 -193 0
41 -42 193 0
-49 -50 194 0
49 -50 -194 0
-49 50 -194 0
49 50 194 0
183 -184 195 0
-183 -184 -195 0
183 184 -195 0
-183 184 195 0
185 -186 196 0
-185 -186 -196 0
185 186 -196 0
-185 186 196 0
187 -188 197 0
-187 -188 -197 0
187 188 -197 0
-187 188 197 0
189 -190 198 0
-189 -190 -198 0
189 190 -198 0
-189 190 198 0
191 -192 199 0
-191 -192 -199 0
191 192 -199 0
-191 192 199 0
193 -194 200 0
-193 -194 -200 0
193 194 -200 0
-193 194 200 0
195 -196 201 0
-195 -196 -201 0
195 196 -201 0
-195 196 201 0
197 -198 202 0
-197 -198 -202 0
197 198 -202 0
-197 198 202 0
199 -200 203 0
-199 -200 -203 0
199 200 -203 0
-199 200 203 0
-201 -202 203 0
201 -202 -203 0
-201 202 -203 0
201 202 203 0
1 -3 204 0
-1 -3 -204 0
1 3 -204 0
-1 3 204 0
4 5 205 0
-4 5 -205 0
4 -5 -205 0
-4 -5 205 0
-6 8 206 0
6 8 -206 0
-6 -8 -206 0
6 -8 206 0
-10 -11 207 0
10 -11 -207 0
-10 11 -207 0
10 11 207 0
12 14 208 0
-12 14 -208 0
12 -14 -208 0
-12 -14 208 0
15 -16 209 0
-15 -16 -209 0
15 16 -209 0
-15 16 209 0
18 19 210 0
-18 19 -210 0
18 -19 -210 0
-18 -19 210 0
23 25 211 0
-23 25 -211 0
23 -25 -211 0
-23 -25 211 0
26 27 212 0
-26 27 -212 0
26 -27 -212 0
-26 -27 212 0
-29 -34 213 0
29 -34 -213 0
-29 34 -213 0
29 34 213 0
35 37 214 0
-35 37 -214 0
35 -37 -214 0
-35 -37 214 0
38 39 215 0
-38 39 -215 0
38 -39 -215 0
-38 -39 215 0
40 -41 216 0
-40 -41 -216 0
40 41 -216 0
-40 41 216 0
43 -45 217 0
-43 -45 -217 0
43 45 -217 0
-43 45 217 0
46 47 218 0
-46 47 -218 0
46 -47 -218 0
-46 -47 218 0
203 -204 219 0
-203 -204 -219 0
203 204 -219 0
-203 204 219 0
205 -206 220 0
-205 -206 -220 0
205 206 -220 0
-205 206 220 0
207 -208 221 0
-207 -208 -221 0
207 208 -221 0
-207 208 221 0
209 -210 222 0
-209 -210 -222 0
209 210 -222 0
-209 210 222 0
211 -212 223 0
-211 -212 -223 0
211 212 -223 0
-211 212 223 0
213 -214 224 0
-213 -214 -224 0
213 214 -224 0
-213 214 224 0
215 -216 225 0
-215 -216 -225 0
215 216 -225 0
-215 216 225 0
217 -218 226 0
-217 -218 -226 0
217 218 -226 0
-217 218 226 0
219 -220 227 0
-219 -220 -227 0
219 220 -227 0
-219 220 227 0
221 -222 228 0
-221 -222 -228 0
221 222 -228 0
-221 222 228 0
223 -224 229 0
-223 -224 -229 0
223 224 -229 0
-223 224 229 0
225 -226 230 0
-225 -226 -230 0
225 226 -230 0
-225 226 230 0
227 -228 231 0
-227 -228 -231 0
227 228 -231 0
-227 228 231 0
229 -230 232 0
-229 -230 -232 0
229 230 -232 0
-229 230 232 0
231 232 0
-231 -232 0
5 -7 233 0
-5 -7 -233 0
5 7 -233 0
-5 7 233 0
-8 -9 234 0
8 -9 -234 0
-8 9 -234 0
8 9 234 0
-10 14 235 0
10 14 -235 0
-10 -14 -235 0
10 -14 235 0
15 16 236 0
-15 16 -236 0
15 -16 -236 0
-15 -16 236 0
19 22 237 0
-19 22 -237 0
19 -22 -237 0
-19 -22 237 0
23 -25 238 0
-23 -25 -238 0
23 25 -238 0
-23 25 238 0
26 28 239 0
-26 28 -239 0
26 -28 -239 0
-26 -28 239 0
-29 30 240 0
29 30 -240 0
-29 -30 -240 0
29 -30 240 0
-31 -32 241 0
31 -32 -241 0
-31 32 -241 0
31 32 241 0
-34 35 242 0
34 35 -242 0
-34 -35 -242 0
34 -35 242 0
-36 38 243 0
36 38 -243 0
-36 -38 -243 0
36 -38 243 0
-40 -42 244 0
40 -42 -244 0
-40 42 -244 0
40 42 244 0
43 44 245 0
-43 44 -245 0
43 -44 -245 0
-43 -44 245 0
-46 -47 246 0
46 -47 -246 0
-46 47 -246 0
46 47 246 0
48 50 247 0
-48 50 -247 0
48 -50 -247 0
-48 -50 247 0
233 -234 248 0
-233 -234 -248 0
233 234 -248 0
-233 234 248 0
235 -236 249 0
-235 -236 -249 0
235 236 -249 0
-235 236 249 0
237 -238 250 0
-237 -238 -250 0
237 238 -250 0
-237 238 250 0
239 -240 251 0
-239 -240 -251 0
239 240 -251 0
-239 240 251 0
241 -242 252 0
-241 -242 -252 0
241 242 -252 0
-241 242 252 0
243 -244 253 0
-243 -244 -253 0
243 244 -253 0
-243 244 253 0
245 -246 254 0
-245 -246 -254 0
245 246 -254 0
-245 246 254 0
247 -248 255 0
-247 -248 -255 0
247 248 -255 0
-247 248 255 0
249 -250 256 0
-249 -250 -256 0
249 250 -256 0
-249 250 256 0
251 -252 257 0
-251 -252 -257 0
251 252 -257 0
-251 252 257 0
253 -254 258 0
-253 -254 -258 0
253 254 -258 0
-253 254 258 0
255 -256 259 0
-255 -256 -259 0
255 256 -259 0
-255 256 259 0
257 -258 260 0
-257 -258 -260 0
257 258 -260 0
-257 258 260 0
259 260 0
-259 -260 0
2 -4 261 0
-2 -4 -261 0
2 4 -261 0
-2 4 261 0
5 -7 262 0
-5 -7 -262 0
5 7 -262 0
-5 7 262 0
-8 9 263 0
8 9 -263 0
-8 -9 -263 0
8 -9 263 0
12 -13 264 0
-12 -13 -264 0
12 13 -264 0
-12 13 264 0
14 15 265 0
-14 15 -265 0
14 -15 -265 0
-14 -15 265 0
18 20 266 0
-18 20 -266 0
18 -20 -266 0
-18 -20 266 0
-22 -28 267 0
22 -28 -267 0
-22 28 -267 0
22 28 267 0
-30 31 268 0
30 31 -268 0
-30 -31 -268 0
30 -31 268 0
32 -33 269 0
-32 -33 -269 0
32 33 -269 0
-32 33 269 0
35 36 270 0
-35 36 -270 0
35 -36 -270 0
-35 -36 270 0
39 -40 271 0
-39 -40 -271 0
39 40 -271 0
-39 40 271 0
-41 -42 272 0
41 -42 -272 0
-41 42 -272 0
41 42 272 0
-43 44 273 0
43 44 -273 0
-43 -44 -273 0
43 -44 273 0
260 -261 274 0
-260 -261 -274 0
260 261 -274 0
-260 261 274 0
262 -263 275 0
-262 -263 -275 0
262 263 -275 0
-262 263 275 0
264 -265 276 0
-264 -265 -276 0
264 265 -276 0
-264 265 276 0
266 -267 277 0
-266 -267 -277 0
266 267 -277 0
-266 267 277 0
268 -269 278 0
-268 -269 -278 0
268 269 -278 0
-268 269 278 0
270 -271 279 0
-270 -271 -279 0
270 271 -279 0
-270 271 279 0
272 -273 280 0
-272 -273 -280 0
272 273 -280 0
-272 273 280 0
274 -275 281 0
-274 -275 -281 0
274 275 -281 0
-274 275 281 0
276 -277 282 0
-276 -277 -282 0
276 277 -282 0
-276 277 282 0
278 -279 283 0
-278 -279 -283 0
278 279 -283 0
-278 279 283 0
280 -281 284 0
-280 -281 -284 0
280 281 -284 0
-280 281 284 0
282 -283 285 0
-282 -283 -285 0
282 283 -285 0
-282 283 285 0
284 285 0
-284 -285 0
1 -3 286 0
-1 -3 -286 0
1 3 -286 0
-1 3 286 0
5 9 287 0
-5 9 -287 0
5 -9 -287 0
-5 -9 287 0
10 11 288 0
-10 11 -288 0
10 -11 -288 0
-10 -11 288 0
-12 -13 289 0
12 -13 -289 0
-12 13 -289 0
12 13 289 0
14 17 290 0
-14 17 -290 0
14 -17 -290 0
-14 -17 290 0
-19 -21 291 0
19 -21 -291 0
-19 21 -291 0
19 21 291 0
-22 23 292 0
22 23 -292 0
-22 -23 -292 0
22 -23 292 0
-25 -26 293 0
25 -26 -293 0
-25 26 -293 0
25 26 293 0
-27 -29 294 0
27 -29 -294 0
-27 29 -294 0
27 29 294 0
-33 34 295 0
33 34 -295 0
-33 -34 -295 0
33 -34 295 0
-35 -37 296 0
35 -37 -296 0
-35 37 -296 0
35 37 296 0
-39 41 297 0
39 41 -297 0
-39 -41 -297 0
39 -41 297 0
-42 43 298 0
42 43 -298 0
-42 -43 -298 0
42 -43 298 0
44 45 299 0
-44 45 -299 0
44 -45 -299 0
-44 -45 299 0
-47 -49 300 0
47 -49 -300 0
-47 49 -300 0
47 49 300 0
286 -287 301 0
-286 -287 -301 0
286 287 -301 0
-286 287 301 0
288 -289 302 0
-288 -289 -302 0
288 289 -302 0
-288 289 302 0
290 -291 303 0
-290 -291 -303 0
290 291 -303 0
-290 291 303 0
292 -293 304 0
-292 -293 -304 0
292 293 -304 0
-292 293 304 0
294 -295 305 0
-294 -295 -305 0
294 295 -305 0
-294 295 305 0
296 -297 306 0
-296 -297 -306 0
296 297 -306 0
-296 297 306 0
298 -299 307 0
-298 -299 -307 0
298 299 -307 0
-298 299 307 0
300 -301 308 0
-300 -301 -308 0
300 301 -308 0
-300 301 308 0
302 -303 309 0
-302 -303 -309 0
302 303 -309 0
-302 303 309 0
304 -305 310 0
-304 -305 -310 0
304 305 -310 0
-304 305 310 0
306 -307 311 0
-306 -307 -311 0
306 307 -311 0
-306 307 311 0
308 -309 312 0
-308 -309 -312 0
308 309 -312 0
-308 309 312 0
310 -311 313 0
-310 -311 -313 0
310 311 -313 0
-310 311 313 0
312 313 0
-312 -313 0
-1 2 314 0
1 2 -314 0
-1 -2 -314 0
1 -2 314 0
-4 -9 315 0
4 -9 -315 0
-4 9 -315 0
4 9 315 0
11 15 316 0
-11 15 -316 0
11 -15 -316 0
-11 -15 316 0
16 -17 317 0
-16 -17 -317 0
16 17 -317 0
-16 17 317 0
19 -20 318 0
-19 -20 -318 0
19 20 -318 0
-19 20 318 0
-21 -22 319 0
21 -22 -319 0
-21 22 -319 0
21 22 319 0
-23 -24 320 0
23 -24 -320 0
-23 24 -320 0
23 24 320 0
-28 30 321 0
28 30 -321 0
-28 -30 -321 0
28 -30 321 0
33 34 322 0
-33 34 -322 0
33 -34 -322 0
-33 -34 322 0
35 -36 323 0
-35 -36 -323 0
35 36 -323 0
-35 36 323 0
-42 44 324 0
42 44 -324 0
-42 -44 -324 0
42 -44 324 0
45 -46 325 0
-45 -46 -325 0
45 46 -325 0
-45 46 325 0
313 -314 326 0
-313 -314 -326 0
313 314 -326 0
-313 314 326 0
315 -316 327 0
-315 -316 -327 0
315 316 -327 0
-315 316 327 0
317 -318 328 0
-317 -318 -328 0
317 318 -328 0
-317 318 328 0
319 -320 329 0
-319 -320 -329 0
319 320 -329 0
-319 320 329 0
321 -322 330 0
-321 -322 -330 0
321 322 -330 0
-321 322 330 0
323 -324 331 0
-323 -324 -331 0
323 324 -331 0
-323 324 331 0
325 -326 332 0
-325 -326 -332 0
325 326 -332 0
-325 326 332 0
327 -328 333 0
-327 -328 -333 0
327 328 -333 0
-327 328 333 0
329 -330 334 0
-329 -330 -334 0
329 330 -334 0
-329 330 334 0
331 -332 335 0
-331 -332 -335 0
331 332 -335 0
-331 332 335 0
333 -334 336 0
-333 -334 -336 0
333 334 -336 0
-333 334 336 0
335 336 0
-335 -336 0
1 -2 337 0
-1 -2 -337 0
1 2 -337 0
-1 2 337 0
-3 -5 338 0
3 -5 -338 0
-3 5 -338 0
3 5 338 0
-6 -7 339 0
6 -7 -339 0
-6 7 -339 0
6 7 339 0
10 11 340 0
-10 11 -340 0
10 -11 -340 0
-10 -11 340 0
-13 -17 341 0
13 -17 -341 0
-13 17 -341 0
13 17 341 0
-21 -26 342 0
21 -26 -342 0
-21 26 -342 0
21 26 342 0
-27 -28 343 0
27 -28 -343 0
-27 28 -343 0
27 28 343 0
31 -32 344 0
-31 -32 -344 0
31 32 -344 0
-31 32 344 0
-36 -38 345 0
36 -38 -345 0
-36 38 -345 0
36 38 345 0
40 44 346 0
-40 44 -346 0
40 -44 -346 0
-40 -44 346 0
-45 -46 347 0
45 -46 -347 0
-45 46 -347 0
45 46 347 0
-48 49 348 0
48 49 -348 0
-48 -49 -348 0
48 -49 348 0
336 -337 349 0
-336 -337 -349 0
336 337 -349 0
-336 337 349 0
338 -339 350 0
-338 -339 -350 0
338 339 -350 0
-338 339 350 0
340 -341 351 0
-340 -341 -351 0
340 341 -351 0
-340 341 351 0
342 -343 352 0
-342 -343 -352 0
342 343 -352 0
-342 343 352 0
344 -345 353 0
-344 -345 -353 0
344 345 -353 0
-344 345 353 0
346 -347 354 0
-346 -347 -354 0
346 347 -354 0
-346 347 354 0
348 -349 355 0
-348 -349 -355 0
348 349 -355 0
-348 349 355 0
350 -351 356 0
-350 -351 -356 0
350 351 -356 0
-350 351 356 0
352 -353 357 0
-352 -353 -357 0
352 353 -357 0
-352 353 357 0
354 -355 358 0
-354 -355 -358 0
354 355 -358 0
-354 355 358 0
356 -357 359 0
-356 -357 -359 0
356 357 -359 0
-356 357 359 0
358 359 0
-358 -359 0
-1 2 360 0
1 2 -360 0
-1 -2 -360 0
1 -2 360 0
3 -4 361 0
-3 -4 -361 0
3 4 -361 0
-3 4 361 0
-6 -9 362 0
6 -9 -362 0
-6 9 -362 0
6 9 362 0
11 -12 363 0
-11 -12 -363 0
11 12 -363 0
-11 12 363 0
-22 -23 364 0
22 -23 -364 0
-22 23 -364 0
22 23 364 0
25 30 365 0
-25 30 -365 0
25 -30 -365 0
-25 -30 365 0
-32 34 366 0
32 34 -366 0
-32 -34 -366 0
32 -34 366 0
-35 38 367 0
35 38 -367 0
-35 -38 -367 0
35 -38 367 0
-41 42 368 0
41 42 -368 0
-41 -42 -368 0
41 -42 368 0
45 -46 369 0
-45 -46 -369 0
45 46 -369 0
-45 46 369 0
359 -360 370 0
-359 -360 -370 0
359 360 -370 0
-359 360 370 0
361 -362 371 0
-361 -362 -371 0
361 362 -371 0
-361 362 371 0
363 -364 372 0
-363 -364 -372 0
363 364 -372 0
-363 364 372 0
365 -366 373 0
-365 -366 -373 0
365 366 -373 0
-365 366 373 0
367 -368 374 0
-367 -368 -374 0
367 368 -374 0
-367 368 374 0
369 -370 375 0
-369 -370 -375 0
369 370 -375 0
-369 370 375 0
371 -372 376 0
-371 -372 -376 0
371 372 -376 0
-371 372 376 0
373 -374 377 0
-373 -374 -377 0
373 374 -377 0
-373 374 377 0
-375 -376 377 0
375 -376 -377 0
-375 376 -377 0
375 376 377 0
1 3 378 0
-1 3 -378 0
1 -3 -378 0
-1 -3 378 0
10 -11 379 0
-10 -11 -379 0
10 11 -379 0
-10 11 379 0
12 14 380 0
-12 14 -380 0
12 -14 -380 0
-12 -14 380 0
16 18 381 0
-16 18 -381 0
16 -18 -381 0
-16 -18 381 0
-19 -24 382 0
19 -24 -382 0
-19 24 -382 0
19 24 382 0
-25 27 383 0
25 27 -383 0
-25 -27 -383 0
25 -27 383 0
31 33 384 0
-31 33 -384 0
31 -33 -384 0
-31 -33 384 0
34 35 385 0
-34 35 -385 0
34 -35 -385 0
-34 -35 385 0
36 37 386 0
-36 37 -386 0
36 -37 -386 0
-36 -37 386 0
41 46 387 0
-41 46 -387 0
41 -46 -387 0
-41 -46 387 0
47 49 388 0
-47 49 -388 0
47 -49 -388 0
-47 -49 388 0
378 -379 389 0
-378 -379 -389 0
378 379 -389 0
-378 379 389 0
380 -381 390 0
-380 -381 -390 0
380 381 -390 0
-380 381 390 0
382 -383 391 0
-382 -383 -391 0
382 383 -391 0
-382 383 391 0
384 -385 392 0
-384 -385 -392 0
384 385 -392 0
-384 385 392 0
386 -387 393 0
-386 -387 -393 0
386 387 -393 0
-386 387 393 0
388 -389 394 0
-388 -389 -394 0
388 389 -394 0
-388 389 394 0
390 -391 395 0
-390 -391 -395 0
390 391 -395 0
-390 391 395 0
392 -393 396 0
-392 -393 -396 0
392 393 -396 0
-392 393 396 0
-394 -395 396 0
394 -395 -396 0
-394 395 -396 0
394 395 396 0
-1 4 397 0
1 4 -397 0
-1 -4 -397 0
1 -4 397 0
5 -12 398 0
-5 -12 -398 0
5 12 -398 0
-5 12 398 0
14 -15 399 0
-14 -15 -399 0
14 15 -399 0
-14 15 399 0
17 -19 400 0
-17 -19 -400 0
17 19 -400 0
-17 19 400 0
-22 25 401 0
22 25 -401 0
-22 -25 -401 0
22 -25 401 0
31 -33 402 0
-31 -33 -402 0
31 33 -402 0
-31 33 402 0
35 37 403 0
-35 37 -403 0
35 -37 -403 0
-35 -37 403 0
-39 -40 404 0
39 -40 -404 0
-39 40 -404 0
39 40 404 0
-44 48 405 0
44 48 -405 0
-44 -48 -405 0
44 -48 405 0
396 -397 406 0
-396 -397 -406 0
396 397 -406 0
-396 397 406 0
398 -399 407 0
-398 -399 -407 0
398 399 -407 0
-398 399 407 0
400 -401 408 0
-400 -401 -408 0
400 401 -408 0
-400 401 408 0
402 -403 409 0
-402 -403 -409 0
402 403 -409 0
-402 403 409 0
404 -405 410 0
-404 -405 -410 0
404 405 -410 0
-404 405 410 0
406 -407 411 0
-406 -407 -411 0
406 407 -411 0
-406 407 411 0
408 -409 412 0
-408 -409 -412 0
408 409 -412 0
-408 409 412 0
-410 -411 412 0
410 -411 -412 0
-410 411 -412 0
410 411 412 0
-4 6 413 0
4 6 -413 0
-4 -6 -413 0
4 -6 413 0
-8 -10 414 0
8 -10 -414 0
-8 10 -414 0
8 10 414 0
12 -17 415 0
-12 -17 -415 0
12 17 -415 0
-12 17 415 0
20 -22 416 0
-20 -22 -416 0
20 22 -416 0
-20 22 416 0
-25 -26 417 0
25 -26 -417 0
-25 26 -417 0
25 26 417 0
-29 31 418 0
29 31 -418 0
-29 -31 -418 0
29 -31 418 0
-32 33 419 0
32 33 -419 0
-32 -33 -419 0
32 -33 419 0
-38 -39 420 0
38 -39 -420 0
-38 39 -420 0
38 39 420 0
41 46 421 0
-41 46 -421 0
41 -46 -421 0
-41 -46 421 0
-49 -50 422 0
49 -50 -422 0
-49 50 -422 0
49 50 422 0
413 -414 423 0
-413 -414 -423 0
413 414 -423 0
-413 414 423 0
415 -416 424 0
-415 -416 -424 0
415 416 -424 0
-415 416 424 0
417 -418 425 0
-417 -418 -425 0
417 418 -425 0
-417 418 425 0
419 -420 426 0
-419 -420 -426 0
419 420 -426 0
-419 420 426 0
421 -422 427 0
-421 -422 -427 0
421 422 -427 0
-421 422 427 0
423 -424 428 0
-423 -424 -428 0
423 424 -428 0
-423 424 428 0
425 -426 429 0
-425 -426 -429 0
425 426 -429 0
-425 426 429 0
-427 -428 429 0
427 -428 -429 0
-427 428 -429 0
427 428 429 0
-2 -3 430 0
2 -3 -430 0
-2 3 -430 0
2 3 430 0
5 -7 431 0
-5 -7 -431 0
5 7 -431 0
-5 7 431 0
-8 9 432 0
8 9 -432 0
-8 -9 -432 0
8 -9 432 0
12 13 433 0
-12 13 -433 0
12 -13 -433 0
-12 -13 433 0
14 15 434 0
-14 15 -434 0
14 -15 -434 0
-14 -15 434 0
-20 -21 435 0
20 -21 -435 0
-20 21 -435 0
20 21 435 0
-28 31 436 0
28 31 -436 0
-28 -31 -436 0
28 -31 436 0
32 33 437 0
-32 33 -437 0
32 -33 -437 0
-32 -33 437 0
-34 -35 438 0
34 -35 -438 0
-34 35 -438 0
34 35 438 0
-36 -37 439 0
36 -37 -439 0
-36 37 -439 0
36 37 439 0
-38 -41 440 0
38 -41 -440 0
-38 41 -440 0
38 41 440 0
-44 46 441 0
44 46 -441 0
-44 -46 -441 0
44 -46 441 0
-48 -50 442 0
48 -50 -442 0
-48 50 -442 0
48 50 442 0
430 -431 443 0
-430 -431 -443 0
430 431 -443 0
-430 431 443 0
432 -433 444 0
-432 -433 -444 0
432 433 -444 0
-432 433 444 0
434 -435 445 0
-434 -435 -445 0
434 435 -445 0
-434 435 445 0
436 -437 446 0
-436 -437 -446 0
436 437 -446 0
-436 437 446 0
438 -439 447 0
-438 -439 -447 0
438 439 -447 0
-438 439 447 0
440 -441 448 0
-440 -441 -448 0
440 441 -448 0
-440 441 448 0
442 -443 449 0
-442 -443 -449 0
442 443 -449 0
-442 443 449 0
444 -445 450 0
-444 -445 -450 0
444 445 -450 0
-444 445 450 0
446 -447 451 0
-446 -447 -451 0
446 447 -451 0
-446 447 451 0
448 -449 452 0
-448 -449 -452 0
448 449 -452 0
-448 449 452 0
450 -451 453 0
-450 -451 -453 0
450 451 -453 0
-450 451 453 0
452 453 0
-452 -453 0
-11 -13 454 0
11 -13 -454 0
-11 13 -454 0
11 13 454 0
-14 15 455 0
14 15 -455 0
-14 -15 -455 0
14 -15 455 0
-17 -18 456 0
17 -18 -456 0
-17 18 -456 0
17 18 456 0
21 -22 457 0
-21 -22 -457 0
21 22 -457 0
-21 22 457 0
23 25 458 0
-23 25 -458 0
23 -25 -458 0
-23 -25 458 0
-28 -31 459 0
28 -31 -459 0
-28 31 -459 0
28 31 459 0
-32 -34 460 0
32 -34 -460 0
-32 34 -460 0
32 34 460 0
35 36 461 0
-35 36 -461 0
35 -36 -461 0
-35 -36 461 0
-39 41 462 0
39 41 -462 0
-39 -41 -462 0
39 -41 462 0
-42 -44 463 0
42 -44 -463 0
-42 44 -463 0
42 44 463 0
46 49 464 0
-46 49 -464 0
46 -49 -464 0
-46 -49 464 0
454 -455 465 0
-454 -455 -465 0
454 455 -465 0
-454 455 465 0
456 -457 466 0
-456 -457 -466 0
456 457 -466 0
-456 457 466 0
458 -459 467 0
-458 -459 -467 0
458 459 -467 0
-458 459 467 0
460 -461 468 0
-460 -461 -468 0
460 461 -468 0
-460 461 468 0
462 -463 469 0
-462 -463 -469 0
462 463 -469 0
-462 463 469 0
464 -465 470 0
-464 -465 -470 0
464 465 -470 0
-464 465 470 0
466 -467 471 0
-466 -467 -471 0
466 467 -471 0
-466 467 471 0
468 -469 472 0
-468 -469 -472 0
468 469 -472 0
-468 469 472 0
-470 -471 472 0
470 -471 -472 0
-470 471 -472 0
470 471 472 0
-1 2 473 0
1 2 -473 0
-1 -2 -473 0
1 -2 473 0
-3 4 474 0
3 4 -474 0
-3 -4 -474 0
3 -4 474 0
6 -8 475 0
-6 -8 -475 0
6 8 -475 0
-6 8 475 0
10 -13 476 0
-10 -13 -476 0
10 13 -476 0
-10 13 476 0
-14 -16 477 0
14 -16 -477 0
-14 16 -477 0
14 16 477 0
20 21 478 0
-20 21 -478 0
20 -21 -478 0
-20 -21 478 0
-23 -25 479 0
23 -25 -479 0
-23 25 -479 0
23 25 479 0
-26 30 480 0
26 30 -480 0
-26 -30 -480 0
26 -30 480 0
-34 -36 481 0
34 -36 -481 0
-34 36 -481 0
34 36 481 0
37 39 482 0
-37 39 -482 0
37 -39 -482 0
-37 -39 482 0
-43 44 483 0
43 44 -483 0
-43 -44 -483 0
43 -44 483 0
46 47 484 0
-46 47 -484 0
46 -47 -484 0
-46 -47 484 0
473 -474 485 0
-473 -474 -485 0
473 474 -485 0
-473 474 485 0
475 -476 486 0
-475 -476 -486 0
475 476 -486 0
-475 476 486 0
477 -478 487 0
-477 -478 -487 0
477 478 -487 0
-477 478 487 0
479 -480 488 0
-479 -480 -488 0
479 480 -488 0
-479 480 488 0
481 -482 489 0
-481 -482 -489 0
481 482 -489 0
-481 482 489 0
483 -484 490 0
-483 -484 -490 0
483 484 -490 0
-483 484 490 0
485 -486 491 0
-485 -486 -491 0
485 486 -491 0
-485 486 491 0
487 -488 492 0
-487 -488 -492 0
487 488 -492 0
-487 488 492 0
489 -490 493 0
-489 -490 -493 0
489 490 -493 0
-489 490 493 0
-491 -492 493 0
491 -492 -493 0
-491 492 -493 0
491 492 493 0
-12 494 0
-24 494 0
-12 -24 495 0
-23 494 0
-12 -23 495 0
-24 -23 495 0
-12 -24 -23 496 0
-22 497 0
-21 497 0
-22 -21 498 0
-20 497 0
-22 -20 498 0
-21 -20 498 0
-22 -21 -20 499 0
-494 500 0
-495 501 0
-496 502 0
-497 500 0
-498 501 0
-499 502 0
-494 -497 501 0
-494 -498 502 0
-494 -499 503 0
-495 -497 502 0
-495 -498 503 0
-495 -499 504 0
-496 -497 503 0
-496 -498 504 0
-496 -499 505 0
-19 506 0
-18 506 0
-19 -18 507 0
-17 506 0
-19 -17 507 0
-18 -17 507 0
-19 -18 -17 508 0
-16 509 0
-15 509 0
-16 -15 510 0
-14 509 0
-16 -14 510 0
-15 -14 510 0
-16 -15 -14 511 0
-506 512 0
-507 513 0
-508 514 0
-509 512 0
-510 513 0
-511 514 0
-506 -509 513 0
-506 -510 514 0
-506 -511 515 0
-507 -509 514 0
-507 -510 515 0
-507 -511 516 0
-508 -509 515 0
-508 -510 516 0
-508 -511 517 0
-500 518 0
-502 519 0
-504 520 0
-512 518 0
-514 519 0
-516 520 0
-500 -512 519 0
-500 -514 520 0
-500 -516 521 0
-502 -512 520 0
-502 -514 521 0
-502 -516 522 0
-504 -512 521 0
-504 -514 522 0
-504 -516 523 0
-501 524 0
-503 525 0
-505 526 0
-513 524 0
-515 525 0
-517 526 0
-501 -513 525 0
-501 -515 526 0
-501 -517 527 0
-503 -513 526 0
-503 -515 527 0
-503 -517 528 0
-505 -513 527 0
-505 -515 528 0
-505 -517 529 0
-519 530 0
-524 530 0
-519 -524 531 0
-520 532 0
-525 532 0
-520 -525 533 0
-521 534 0
-526 534 0
-521 -526 535 0
-522 536 0
-527 536 0
-522 -527 537 0
-523 538 0
-528 538 0
-523 -528 539 0
-13 540 0
-25 540 0
-13 -25 541 0
-11 540 0
-13 -11 541 0
-25 -11 541 0
-13 -25 -11 542 0
-10 543 0
-9 543 0
-10 -9 544 0
-8 543 0
-10 -8 544 0
-9 -8 544 0
-10 -9 -8 545 0
-540 546 0
-541 547 0
-542 548 0
-543 546 0
-544 547 0
-545 548 0
-540 -543 547 0
-540 -544 548 0
-540 -545 549 0
-541 -543 548 0
-541 -544 549 0
-541 -545 550 0
-542 -543 549 0
-542 -544 550 0
-542 -545 551 0
-7 552 0
-6 552 0
-7 -6 553 0
-5 552 0
-7 -5 553 0
-6 -5 553 0
-7 -6 -5 554 0
-4 555 0
-3 555 0
-4 -3 556 0
-2 555 0
-4 -2 556 0
-3 -2 556 0
-4 -3 -2 557 0
-552 558 0
-553 559 0
-554 560 0
-555 558 0
-556 559 0
-557 560 0
-552 -555 559 0
-552 -556 560 0
-552 -557 561 0
-553 -555 560 0
-553 -556 561 0
-553 -557 562 0
-554 -555 561 0
-554 -556 562 0
-554 -557 563 0
-546 564 0
-548 565 0
-550 566 0
-558 564 0
-560 565 0
-562 566 0
-546 -558 565 0
-546 -560 566 0
-546 -562 567 0
-548 -558 566 0
-548 -560 567 0
-548 -562 568 0
-550 -558 567 0
-550 -560 568 0
-550 -562 569 0
-547 570 0
-549 571 0
-551 572 0
-559 570 0
-561 571 0
-563 572 0
-547 -559 571 0
-547 -561 572 0
-547 -563 573 0
-549 -559 572 0
-549 -561 573 0
-549 -563 574 0
-551 -559 573 0
-551 -561 574 0
-551 -563 575 0
-565 576 0
-570 576 0
-565 -570 577 0
-566 578 0
-571 578 0
-566 -571 579 0
-567 580 0
-572 580 0
-567 -572 581 0
-568 582 0
-573 582 0
-568 -573 583 0
-569 584 0
-574 584 0
-569 -574 585 0
-1 586 0
-37 586 0
-1 -37 587 0
-49 586 0
-1 -49 587 0
-37 -49 587 0
-1 -37 -49 588 0
-48 589 0
-47 589 0
-48 -47 590 0
-46 589 0
-48 -46 590 0
-47 -46 590 0
-48 -47 -46 591 0
-586 592 0
-587 593 0
-588 594 0
-589 592 0
-590 593 0
-591 594 0
-586 -589 593 0
-586 -590 594 0
-586 -591 595 0
-587 -589 594 0
-587 -590 595 0
-587 -591 596 0
-588 -589 595 0
-588 -590 596 0
-588 -591 597 0
-45 598 0
-44 598 0
-45 -44 599 0
-43 598 0
-45 -43 599 0
-44 -43 599 0
-45 -44 -43 600 0
-42 601 0
-41 601 0
-42 -41 602 0
-40 601 0
-42 -40 602 0
-41 -40 602 0
-42 -41 -40 603 0
-598 604 0
-599 605 0
-600 606 0
-601 604 0
-602 605 0
-603 606 0
-598 -601 605 0
-598 -602 606 0
-598 -603 607 0
-599 -601 606 0
-599 -602 607 0
-599 -603 608 0
-600 -601 607 0
-600 -602 608 0
-600 -603 609 0
-592 610 0
-594 611 0
-596 612 0
-604 610 0
-606 611 0
-608 612 0
-592 -604 611 0
-592 -606 612 0
-592 -608 613 0
-594 -604 612 0
-594 -606 613 0
-594 -608 614 0
-596 -604 613 0
-596 -606 614 0
-596 -608 615 0
-593 616 0
-595 617 0
-597 618 0
-605 616 0
-607 617 0
-609 618 0
-593 -605 617 0
-593 -607 618 0
-593 -609 619 0
-595 -605 618 0
-595 -607 619 0
-595 -609 620 0
-597 -605 619 0
-597 -607 620 0
-597 -609 621 0
-611 622 0
-616 622 0
-611 -616 623 0
-612 624 0
-617 624 0
-612 -617 625 0
-613 626 0
-618 626 0
-613 -618 627 0
-614 628 0
-619 628 0
-614 -619 629 0
-615 630 0
-620 630 0
-615 -620 631 0
-39 632 0
-38 632 0
-39 -38 633 0
-50 632 0
-39 -50 633 0
-38 -50 633 0
-39 -38 -50 634 0
-36 635 0
-35 635 0
-36 -35 636 0
-34 635 0
-36 -34 636 0
-35 -34 636 0
-36 -35 -34 637 0
-632 638 0
-633 639 0
-634 640 0
-635 638 0
-636 639 0
-637 640 0
-632 -635 639 0
-632 -636 640 0
-632 -637 641 0
-633 -635 640 0
-633 -636 641 0
-633 -637 642 0
-634 -635 641 0
-634 -636 642 0
-634 -637 643 0
-33 644 0
-32 644 0
-33 -32 645 0
-31 644 0
-33 -31 645 0
-32 -31 645 0
-33 -32 -31 646 0
-30 647 0
-29 647 0
-30 -29 648 0
-28 649 0
-27 649 0
-28 -27 650 0
-26 649 0
-28 -26 650 0
-27 -26 650 0
-28 -27 -26 651 0
-647 652 0
-648 653 0
-649 652 0
-650 653 0
-651 654 0
-647 -649 653 0
-647 -650 654 0
-647 -651 655 0
-648 -649 654 0
-648 -650 655 0
-648 -651 656 0
-644 657 0
-645 658 0
-646 659 0
-652 657 0
-653 658 0
-654 659 0
-655 660 0
-656 661 0
-644 -652 658 0
-644 -653 659 0
-644 -654 660 0
-644 -655 661 0
-644 -656 662 0
-645 -652 659 0
-645 -653 660 0
-645 -654 661 0
-645 -655 662 0
-645 -656 663 0
-646 -652 660 0
-646 -653 661 0
-646 -654 662 0
-646 -655 663 0
-646 -656 664 0
-638 665 0
-640 666 0
-642 667 0
-657 665 0
-659 666 0
-661 667 0
-663 668 0
-638 -657 666 0
-638 -659 667 0
-638 -661 668 0
-638 -663 669 0
-640 -657 667 0
-640 -659 668 0
-640 -661 669 0
-640 -663 670 0
-642 -657 668 0
-642 -659 669 0
-642 -661 670 0
-642 -663 671 0
-639 672 0
-641 673 0
-643 674 0
-658 672 0
-660 673 0
-662 674 0
-664 675 0
-639 -658 673 0
-639 -660 674 0
-639 -662 675 0
-639 -664 676 0
-641 -658 674 0
-641 -660 675 0
-641 -662 676 0
-641 -664 677 0
-643 -658 675 0
-643 -660 676 0
-643 -662 677 0
-643 -664 678 0
-666 679 0
-672 679 0
-666 -672 680 0
-667 681 0
-673 681 0
-667 -673 682 0
-668 683 0
-674 683 0
-668 -674 684 0
-669 685 0
-675 685 0
-669 -675 686 0
-670 687 0
-676 687 0
-670 -676 688 0
-671 689 0
-677 689 0
-671 -677 690 0
-610 691 0
-625 692 0
-629 693 0
-665 691 0
-682 692 0
-686 693 0
-690 694 0
-610 -665 692 0
-610 -682 693 0
-610 -686 694 0
-610 -690 695 0
-625 -665 693 0
-625 -682 694 0
-625 -686 695 0
-625 -690 696 0
-629 -665 694 0
-629 -682 695 0
-629 -686 696 0
-623 697 0
-627 698 0
-631 699 0
-680 697 0
-684 698 0
-688 699 0
-623 -680 698 0
-623 -684 699 0
-623 -688 700 0
-627 -680 699 0
-627 -684 700 0
-627 -688 701 0
-631 -680 700 0
-631 -684 701 0
-692 702 0
-697 702 0
-692 -697 703 0
-693 704 0
-698 704 0
-693 -698 705 0
-694 706 0
-699 706 0
-694 -699 707 0
-695 708 0
-700 708 0
-695 -700 709 0
-696 710 0
-701 710 0
-696 -701 711 0
-622 712 0
-626 713 0
-630 714 0
-679 712 0
-683 713 0
-687 714 0
-678 715 0
-622 -679 713 0
-622 -683 714 0
-622 -687 715 0
-622 -678 716 0
-626 -679 714 0
-626 -683 715 0
-626 -687 716 0
-626 -678 717 0
-630 -679 715 0
-630 -683 716 0
-630 -687 717 0
-624 718 0
-628 719 0
-621 720 0
-681 718 0
-685 719 0
-689 720 0
-624 -681 719 0
-624 -685 720 0
-624 -689 721 0
-628 -681 720 0
-628 -685 721 0
-628 -689 722 0
-621 -681 721 0
-621 -685 722 0
-713 723 0
-718 723 0
-713 -718 724 0
-714 725 0
-719 725 0
-714 -719 726 0
-715 727 0
-720 727 0
-715 -720 728 0
-716 729 0
-721 729 0
-716 -721 730 0
-717 731 0
-722 731 0
-702 732 0
-712 732 0
-702 -712 733 0
-703 734 0
-723 734 0
-703 -723 735 0
-704 736 0
-724 736 0
-704 -724 737 0
-705 738 0
-725 738 0
-705 -725 739 0
-706 740 0
-726 740 0
-706 -726 741 0
-707 742 0
-727 742 0
-707 -727 743 0
-708 744 0
-728 744 0
-708 -728 745 0
-709 746 0
-729 746 0
-709 -729 747 0
-710 748 0
-730 748 0
-710 -730 749 0
-711 750 0
-731 750 0
-711 -731 751 0
-564 752 0
-579 753 0
-583 754 0
-691 752 0
-735 753 0
-739 754 0
-743 755 0
-747 756 0
-751 757 0
-564 -691 753 0
-564 -735 754 0
-564 -739 755 0
-564 -743 756 0
-564 -747 757 0
-579 -691 754 0
-579 -735 755 0
-579 -739 756 0
-579 -743 757 0
-583 -691 755 0
-583 -735 756 0
-583 -739 757 0
-577 758 0
-581 759 0
-585 760 0
-733 758 0
-737 759 0
-741 760 0
-745 761 0
-749 762 0
-577 -733 759 0
-577 -737 760 0
-577 -741 761 0
-577 -745 762 0
-581 -733 760 0
-581 -737 761 0
-581 -741 762 0
-585 -733 761 0
-585 -737 762 0
-753 763 0
-758 763 0
-753 -758 764 0
-754 765 0
-759 765 0
-754 -759 766 0
-755 767 0
-760 767 0
-755 -760 768 0
-756 769 0
-761 769 0
-756 -761 770 0
-757 771 0
-762 771 0
-757 -762 772 0
-576 773 0
-580 774 0
-584 775 0
-732 773 0
-736 774 0
-740 775 0
-744 776 0
-748 777 0
-576 -732 774 0
-576 -736 775 0
-576 -740 776 0
-576 -744 777 0
-576 -748 778 0
-580 -732 775 0
-580 -736 776 0
-580 -740 777 0
-580 -744 778 0
-584 -732 776 0
-584 -736 777 0
-584 -740 778 0
-578 779 0
-582 780 0
-575 781 0
-734 779 0
-738 780 0
-742 781 0
-746 782 0
-750 783 0
-578 -734 780 0
-578 -738 781 0
-578 -742 782 0
-578 -746 783 0
-582 -734 781 0
-582 -738 782 0
-582 -742 783 0
-575 -734 782 0
-575 -738 783 0
-774 784 0
-779 784 0
-774 -779 785 0
-775 786 0
-780 786 0
-775 -780 787 0
-776 788 0
-781 788 0
-776 -781 789 0
-777 790 0
-782 790 0
-777 -782 791 0
-778 792 0
-783 792 0
-763 793 0
-773 793 0
-763 -773 794 0
-764 795 0
-784 795 0
-764 -784 796 0
-765 797 0
-785 797 0
-765 -785 798 0
-766 799 0
-786 799 0
-766 -786 800 0
-767 801 0
-787 801 0
-767 -787 802 0
-768 803 0
-788 803 0
-768 -788 804 0
-769 805 0
-789 805 0
-769 -789 806 0
-770 807 0
-790 807 0
-770 -790 808 0
-771 809 0
-791 809 0
-771 -791 810 0
-772 811 0
-792 811 0
-772 -792 812 0
-518 813 0
-533 814 0
-537 815 0
-752 813 0
-796 814 0
-800 815 0
-804 816 0
-808 817 0
-812 818 0
-518 -752 814 0
-518 -796 815 0
-518 -800 816 0
-518 -804 817 0
-518 -808 818 0
-533 -752 815 0
-533 -796 816 0
-533 -800 817 0
-533 -804 818 0
-537 -752 816 0
-537 -796 817 0
-537 -800 818 0
-531 819 0
-535 820 0
-539 821 0
-794 819 0
-798 820 0
-802 821 0
-806 822 0
-810 823 0
-531 -794 820 0
-531 -798 821 0
-531 -802 822 0
-531 -806 823 0
-535 -794 821 0
-535 -798 822 0
-535 -802 823 0
-539 -794 822 0
-539 -798 823 0
-814 824 0
-819 824 0
-814 -819 825 0
-815 826 0
-820 826 0
-815 -820 827 0
-816 828 0
-821 828 0
-816 -821 829 0
-817 830 0
-822 830 0
-817 -822 831 0
-818 832 0
-823 832 0
-818 -823 833 0
-530 834 0
-534 835 0
-538 836 0
-793 834 0
-797 835 0
-801 836 0
-805 837 0
-809 838 0
-530 -793 835 0
-530 -797 836 0
-530 -801 837 0
-530 -805 838 0
-530 -809 839 0
-534 -793 836 0
-534 -797 837 0
-534 -801 838 0
-534 -805 839 0
-538 -793 837 0
-538 -797 838 0
-538 -801 839 0
-532 840 0
-536 841 0
-529 842 0
-795 840 0
-799 841 0
-803 842 0
-807 843 0
-811 844 0
-532 -795 841 0
-532 -799 842 0
-532 -803 843 0
-532 -807 844 0
-536 -795 842 0
-536 -799 843 0
-536 -803 844 0
-529 -795 843 0
-529 -799 844 0
-835 845 0
-840 845 0
-835 -840 846 0
-836 847 0
-841 847 0
-836 -841 848 0
-837 849 0
-842 849 0
-837 -842 850 0
-838 851 0
-843 851 0
-838 -843 852 0
-839 853 0
-844 853 0
-824 854 0
-834 854 0
-824 -834 855 0
-825 856 0
-845 856 0
-825 -845 857 0
-826 858 0
-846 858 0
-826 -846 859 0
-827 860 0
-847 860 0
-827 -847 861 0
-828 862 0
-848 862 0
-828 -848 863 0
-829 864 0
-849 864 0
-829 -849 865 0
-830 866 0
-850 866 0
-830 -850 867 0
-831 868 0
-851 868 0
-831 -851 869 0
-832 870 0
-852 870 0
-832 -852 871 0
-833 872 0
-853 872 0
-833 -853 873 0
-873 0
